(declare-const x0 Bool)
(declare-const x1 Bool)
(declare-const x2 Bool)
(declare-const x3 Bool)
(declare-const x4 Bool)
(declare-const x5 Bool)
(declare-const x6 Bool)
(declare-const x7 Bool)
(declare-const x8 Bool)
(declare-const x9 Bool)
(declare-const x10 Bool)
(declare-const x11 Bool)
(declare-const x12 Bool)
(declare-const x13 Bool)
(declare-const x14 Bool)
(declare-const x15 Bool)
(declare-const x16 Bool)
(declare-const x17 Bool)
(declare-const x18 Bool)
(declare-const x19 Bool)
(declare-const x20 Bool)
(declare-const x21 Bool)
(declare-const x22 Bool)
(declare-const x23 Bool)
(declare-const x24 Bool)
(declare-const x25 Bool)
(declare-const x26 Bool)
(declare-const x27 Bool)
(declare-const x28 Bool)
(declare-const x29 Bool)
(declare-const x30 Bool)
(declare-const x31 Bool)
(declare-const x32 Bool)
(declare-const x33 Bool)
(declare-const x34 Bool)
(declare-const x35 Bool)
(declare-const x36 Bool)
(declare-const x37 Bool)
(declare-const x38 Bool)
(declare-const x39 Bool)
(declare-const x40 Bool)
(declare-const x41 Bool)
(declare-const x42 Bool)
(assert (or false true))
(assert (and (and (= (or (and (and false x29) true) (= true x14)) true) (or false (or true true))) (and (and (and (= x14 x4) (and x3 true)) (or true (or true x6))) (and x14 true))))
(assert (or true x19))
(assert (= false (= false true)))
(assert (and (and (or (and x6 (and (= x25 false) false)) (= (and x21 x34) (and x14 x0))) (= x10 x4)) (or (or false x10) (and (and x33 x18) (and false x18)))))
(assert (or true (and false (or false x16))))
(assert (= (and (or (or (or true x2) x25) x13) (= (and false false) x37)) (= (or x13 x6) (and true x35))))
(assert (= (or (or (= x9 x0) (and true x19)) (and false false)) (and (= (= x24 x23) (or x7 false)) false)))
(assert (and (or (= (or true x32) (or x38 x27)) (or false false)) (and (and true x11) (= (= true x21) (and x6 x35)))))
(assert (or x14 (= true x33)))
(check-sat)
